#SIESTA-MASTER#
SystemName   WSe2
SystemLabel  WSe2
NumberOfAtoms        3
NumberOfSpecies      2
%block ChemicalSpeciesLabel
   1  74 W
   2  34 Se
%endblock ChemicalSpeciesLabel
LatticeConstant    3.290  Ang                    # Lattice vector scaling
%block LatticeVectors
1.00       0.00          0.00
0.50       0.8660254038  0.00
0.00       0.000000000   6.6869300912
%endblock LatticeVectors
AtomicCoordinatesFormat  Fractional
%block AtomicCoordinatesAndAtomicSpecies
     0.0           0.0           0.267705628  1
     0.6666666667  0.6666666667  0.1929647189 2
     0.6666666667  0.6666666667  0.3424465371 2
%endblock AtomicCoordinatesAndAtomicSpecies
# Basis
PAO.BasisSize DZP
PAO.EnergyShift  100 meV   ! Extension of AOs (smaller => more extended)
PAO.SplitNorm      0.15
PAO.SplitNormH      0.50
PAO.SoftDefault      T
xc.functional         GGA          # Exchange-correlation functional
xc.authors            PBE          # Exchange-correlation version
SolutionMethod  diagon
%block kgrid_Monkhorst_Pack
   12   0    0   0.0
   0    12   0   0.0
   0    0    1   0.0
%endblock kgrid_Monkhorst_Pack
 ################ SCF options #############
SolutionMethod  diagon
ElectronicTemperature   0.0010 eV
MaxSCFIterations   300
DM.NumberPulay   3
DM.MixingWeight     0.300
MeshCutoff        1000.0000 Ry
DM.Tolerance        1.E-6
SCF.H.Converge  F
UseSaveData     F
DM.UseSaveDM    T
SpinOrbit       T
Diag.ParallelOverK T
WriteDenchar    T
# ---- SPIN TEXTURE
#
# We use a 'BandPoints' block to generate the states at chosen k-points
# These keywords are necessary to generate the HSX and WFSX files
#
SaveHS T
WFS.Write.For.Bands T
#
# These keywords could be used to limit the number of bands stored in the WFSX file
#
WFS.Band.Min 37
WFS.Band.Max 56
#
BandLinesScale ReciprocalLatticeVectors          # Band line scaling
%block BandLines
 1  0.000          0.000         0.000  G
30  0.3333333333   0.6666666667  0.000  K
30  0.500          0.500         0.000  M
30  0.000          0.000         0.000  G
%endblock BandLines
