&control
   prefix = 'WSe2'
   pseudo_dir = './'
   calculation = 'bands'
   verbosity = 'high'
/
&system
   ecutwfc = 40.0
   A = 3.290
   ibrav = 0
   nat = 3
   ntyp = 2
   lspinorb = .true.
   noncolin = .true.
   nbnd = 100
/
&electrons
   electron_maxstep = 100
   conv_thr = 1e-06
   mixing_mode = 'plain'
   mixing_beta = 0.3
   mixing_ndim = 8
   diagonalization = 'david'
   diago_david_ndim = 4
   diago_full_acc = .true.
/
CELL_PARAMETERS {alat}
1.00       0.00          0.00 
0.50       0.8660254038  0.00
0.00       0.000000000   6.6869300912
ATOMIC_SPECIES 
   W 183.84 'W.upf'
   Se 78.96 'Se.upf'
ATOMIC_POSITIONS crystal
   W   0.0           0.0           0.267705628
   Se  0.6666666667  0.6666666667  0.1974730959
   Se  0.6666666667  0.6666666667  0.33793816

K_POINTS crystal_b                   ! tpiba = 2pi/a, crystal
4 !nk or n_high_sym
0.0          0.0          0.0  30
0.3333333333 0.6666666667 0.0  30
0.5          0.5          0.0  30
0.0          0.0          0.0  1
